
Gurobi 6.5.2 (linux64) logging started Tue Sep 20 21:16:19 2016


Gurobi 6.5.2 (linux64) logging started Tue Sep 20 21:16:19 2016

Optimize a model with 41 rows, 115 columns and 231 nonzeros
Coefficient statistics:
  Matrix range    [1e+00, 2e+00]
  Objective range [1e+00, 1e+02]
  Bounds range    [1e+00, 1e+00]
  RHS range       [1e+00, 1e+00]
Presolve removed 21 rows and 20 columns
Presolve time: 0.00s
Presolved: 20 rows, 95 columns, 190 nonzeros
Variable types: 0 continuous, 95 integer (95 binary)

Root relaxation: objective 4.850000e+02, 20 iterations, 0.00 seconds

    Nodes    |    Current Node    |     Objective Bounds      |     Work
 Expl Unexpl |  Obj  Depth IntInf | Incumbent    BestBd   Gap | It/Node Time

     0     0  490.00000    0    4          -  490.00000      -     -    0s
H    0     0                     672.0000000  490.00000  27.1%     -    0s
     0     0  493.50000    0    9  672.00000  493.50000  26.6%     -    0s
H    0     0                     582.0000000  493.50000  15.2%     -    0s
H    0     0                     580.0000000  493.50000  14.9%     -    0s
     0     0  494.00000    0    8  580.00000  494.00000  14.8%     -    0s
     0     0  494.00000    0    6  580.00000  494.00000  14.8%     -    0s
     0     0  494.00000    0    6  580.00000  494.00000  14.8%     -    0s
     0     2  494.00000    0    6  580.00000  494.00000  14.8%     -    0s
*   11    10               3     506.0000000  502.00000  0.79%   4.5    0s

Cutting planes:
  Gomory: 2
  Zero half: 2
  Lazy constraints: 11

Explored 20 nodes (98 simplex iterations) in 0.01 seconds
Thread count was 8 (of 8 available processors)

Optimal solution found (tolerance 1.00e-04)
Best objective 5.060000000000e+02, best bound 5.060000000000e+02, gap 0.0%
